c nIsolatedPIs 0
c maxPI 32
p cnf 93 184
c gate 33 -2 18 0
-2 -33 0
18 -33 0
2 -18 33 0
c gate 34 2 -18 0
2 -34 0
-18 -34 0
-2 18 34 0
c gate 35 -1 17 0
-1 -35 0
17 -35 0
1 -17 35 0
c gate 36 -34 35 0
-34 -36 0
35 -36 0
34 -35 36 0
c gate 37 -33 -36 0
-33 -37 0
-36 -37 0
33 36 37 0
c gate 38 3 37 0
3 -38 0
37 -38 0
-3 -37 38 0
c gate 39 19 -38 0
19 -39 0
-38 -39 0
-19 38 39 0
c gate 40 -3 -37 0
-3 -40 0
-37 -40 0
3 37 40 0
c gate 41 -4 20 0
-4 -41 0
20 -41 0
4 -20 41 0
c gate 42 -40 -41 0
-40 -42 0
-41 -42 0
40 41 42 0
c gate 43 -39 42 0
-39 -43 0
42 -43 0
39 -42 43 0
c gate 44 5 -21 0
5 -44 0
-21 -44 0
-5 21 44 0
c gate 45 4 -20 0
4 -45 0
-20 -45 0
-4 20 45 0
c gate 46 -44 -45 0
-44 -46 0
-45 -46 0
44 45 46 0
c gate 47 -43 46 0
-43 -47 0
46 -47 0
43 -46 47 0
c gate 48 -6 22 0
-6 -48 0
22 -48 0
6 -22 48 0
c gate 49 -5 21 0
-5 -49 0
21 -49 0
5 -21 49 0
c gate 50 -48 -49 0
-48 -50 0
-49 -50 0
48 49 50 0
c gate 51 -47 50 0
-47 -51 0
50 -51 0
47 -50 51 0
c gate 52 6 -22 0
6 -52 0
-22 -52 0
-6 22 52 0
c gate 53 7 -23 0
7 -53 0
-23 -53 0
-7 23 53 0
c gate 54 -52 -53 0
-52 -54 0
-53 -54 0
52 53 54 0
c gate 55 -51 54 0
-51 -55 0
54 -55 0
51 -54 55 0
c gate 56 -7 23 0
-7 -56 0
23 -56 0
7 -23 56 0
c gate 57 -8 -24 0
-8 -57 0
-24 -57 0
8 24 57 0
c gate 58 8 24 0
8 -58 0
24 -58 0
-8 -24 58 0
c gate 59 -57 -58 0
-57 -59 0
-58 -59 0
57 58 59 0
c gate 60 -56 -59 0
-56 -60 0
-59 -60 0
56 59 60 0
c gate 61 -55 60 0
-55 -61 0
60 -61 0
55 -60 61 0
c gate 62 14 -30 0
14 -62 0
-30 -62 0
-14 30 62 0
c gate 63 -14 30 0
-14 -63 0
30 -63 0
14 -30 63 0
c gate 64 -62 -63 0
-62 -64 0
-63 -64 0
62 63 64 0
c gate 65 15 -31 0
15 -65 0
-31 -65 0
-15 31 65 0
c gate 66 -15 31 0
-15 -66 0
31 -66 0
15 -31 66 0
c gate 67 -65 -66 0
-65 -67 0
-66 -67 0
65 66 67 0
c gate 68 64 67 0
64 -68 0
67 -68 0
-64 -67 68 0
c gate 69 9 25 0
9 -69 0
25 -69 0
-9 -25 69 0
c gate 70 -9 -25 0
-9 -70 0
-25 -70 0
9 25 70 0
c gate 71 -69 -70 0
-69 -71 0
-70 -71 0
69 70 71 0
c gate 72 16 -32 0
16 -72 0
-32 -72 0
-16 32 72 0
c gate 73 -16 32 0
-16 -73 0
32 -73 0
16 -32 73 0
c gate 74 -72 -73 0
-72 -74 0
-73 -74 0
72 73 74 0
c gate 75 -71 74 0
-71 -75 0
74 -75 0
71 -74 75 0
c gate 76 68 75 0
68 -76 0
75 -76 0
-68 -75 76 0
c gate 77 13 -29 0
13 -77 0
-29 -77 0
-13 29 77 0
c gate 78 -13 29 0
-13 -78 0
29 -78 0
13 -29 78 0
c gate 79 -77 -78 0
-77 -79 0
-78 -79 0
77 78 79 0
c gate 80 -12 -28 0
-12 -80 0
-28 -80 0
12 28 80 0
c gate 81 12 28 0
12 -81 0
28 -81 0
-12 -28 81 0
c gate 82 -80 -81 0
-80 -82 0
-81 -82 0
80 81 82 0
c gate 83 79 -82 0
79 -83 0
-82 -83 0
-79 82 83 0
c gate 84 11 27 0
11 -84 0
27 -84 0
-11 -27 84 0
c gate 85 -11 -27 0
-11 -85 0
-27 -85 0
11 27 85 0
c gate 86 -84 -85 0
-84 -86 0
-85 -86 0
84 85 86 0
c gate 87 10 26 0
10 -87 0
26 -87 0
-10 -26 87 0
c gate 88 -10 -26 0
-10 -88 0
-26 -88 0
10 26 88 0
c gate 89 -87 -88 0
-87 -89 0
-88 -89 0
87 88 89 0
c gate 90 -86 -89 0
-86 -90 0
-89 -90 0
86 89 90 0
c gate 91 83 90 0
83 -91 0
90 -91 0
-83 -90 91 0
c gate 92 76 91 0
76 -92 0
91 -92 0
-76 -91 92 0
c gate 93 61 92 0
61 -93 0
92 -93 0
-61 -92 93 0
c PO
93 0
